c pigeon-17: placing 18 pigeons into 17 holes
c 
c File generated by 'pigeonhole', (c) Tjark Weber
c 
c The SAT encoding of this problem is very straightforward.  For each pigeon i
c and each hole j we have a variable x_{n*(i-1)+j} which means that pigeon i
c is placed in hole j.  Then we have n+1 clauses which say that a pigeon has
c to be placed in some hole.  Then for each hole we have a set of clauses
c ensuring that only one single pigeon is placed into that hole.
c 
c This encoding leads to a total of (n+1) * n propositional variables and
c (n+1) + n * (n * (n+1) / 2) clauses.
c 
c The resulting SAT problem is unsatisfiable.
c 
p cnf 306 2619
1 2 3 4 5 6 7 8 9 10 11 12 13 14 15 16 17 0
18 19 20 21 22 23 24 25 26 27 28 29 30 31 32 33 34 0
35 36 37 38 39 40 41 42 43 44 45 46 47 48 49 50 51 0
52 53 54 55 56 57 58 59 60 61 62 63 64 65 66 67 68 0
69 70 71 72 73 74 75 76 77 78 79 80 81 82 83 84 85 0
86 87 88 89 90 91 92 93 94 95 96 97 98 99 100 101 102 0
103 104 105 106 107 108 109 110 111 112 113 114 115 116 117 118 119 0
120 121 122 123 124 125 126 127 128 129 130 131 132 133 134 135 136 0
137 138 139 140 141 142 143 144 145 146 147 148 149 150 151 152 153 0
154 155 156 157 158 159 160 161 162 163 164 165 166 167 168 169 170 0
171 172 173 174 175 176 177 178 179 180 181 182 183 184 185 186 187 0
188 189 190 191 192 193 194 195 196 197 198 199 200 201 202 203 204 0
205 206 207 208 209 210 211 212 213 214 215 216 217 218 219 220 221 0
222 223 224 225 226 227 228 229 230 231 232 233 234 235 236 237 238 0
239 240 241 242 243 244 245 246 247 248 249 250 251 252 253 254 255 0
256 257 258 259 260 261 262 263 264 265 266 267 268 269 270 271 272 0
273 274 275 276 277 278 279 280 281 282 283 284 285 286 287 288 289 0
290 291 292 293 294 295 296 297 298 299 300 301 302 303 304 305 306 0
-1 -18 0
-1 -35 0
-1 -52 0
-1 -69 0
-1 -86 0
-1 -103 0
-1 -120 0
-1 -137 0
-1 -154 0
-1 -171 0
-1 -188 0
-1 -205 0
-1 -222 0
-1 -239 0
-1 -256 0
-1 -273 0
-1 -290 0
-18 -35 0
-18 -52 0
-18 -69 0
-18 -86 0
-18 -103 0
-18 -120 0
-18 -137 0
-18 -154 0
-18 -171 0
-18 -188 0
-18 -205 0
-18 -222 0
-18 -239 0
-18 -256 0
-18 -273 0
-18 -290 0
-35 -52 0
-35 -69 0
-35 -86 0
-35 -103 0
-35 -120 0
-35 -137 0
-35 -154 0
-35 -171 0
-35 -188 0
-35 -205 0
-35 -222 0
-35 -239 0
-35 -256 0
-35 -273 0
-35 -290 0
-52 -69 0
-52 -86 0
-52 -103 0
-52 -120 0
-52 -137 0
-52 -154 0
-52 -171 0
-52 -188 0
-52 -205 0
-52 -222 0
-52 -239 0
-52 -256 0
-52 -273 0
-52 -290 0
-69 -86 0
-69 -103 0
-69 -120 0
-69 -137 0
-69 -154 0
-69 -171 0
-69 -188 0
-69 -205 0
-69 -222 0
-69 -239 0
-69 -256 0
-69 -273 0
-69 -290 0
-86 -103 0
-86 -120 0
-86 -137 0
-86 -154 0
-86 -171 0
-86 -188 0
-86 -205 0
-86 -222 0
-86 -239 0
-86 -256 0
-86 -273 0
-86 -290 0
-103 -120 0
-103 -137 0
-103 -154 0
-103 -171 0
-103 -188 0
-103 -205 0
-103 -222 0
-103 -239 0
-103 -256 0
-103 -273 0
-103 -290 0
-120 -137 0
-120 -154 0
-120 -171 0
-120 -188 0
-120 -205 0
-120 -222 0
-120 -239 0
-120 -256 0
-120 -273 0
-120 -290 0
-137 -154 0
-137 -171 0
-137 -188 0
-137 -205 0
-137 -222 0
-137 -239 0
-137 -256 0
-137 -273 0
-137 -290 0
-154 -171 0
-154 -188 0
-154 -205 0
-154 -222 0
-154 -239 0
-154 -256 0
-154 -273 0
-154 -290 0
-171 -188 0
-171 -205 0
-171 -222 0
-171 -239 0
-171 -256 0
-171 -273 0
-171 -290 0
-188 -205 0
-188 -222 0
-188 -239 0
-188 -256 0
-188 -273 0
-188 -290 0
-205 -222 0
-205 -239 0
-205 -256 0
-205 -273 0
-205 -290 0
-222 -239 0
-222 -256 0
-222 -273 0
-222 -290 0
-239 -256 0
-239 -273 0
-239 -290 0
-256 -273 0
-256 -290 0
-273 -290 0
-2 -19 0
-2 -36 0
-2 -53 0
-2 -70 0
-2 -87 0
-2 -104 0
-2 -121 0
-2 -138 0
-2 -155 0
-2 -172 0
-2 -189 0
-2 -206 0
-2 -223 0
-2 -240 0
-2 -257 0
-2 -274 0
-2 -291 0
-19 -36 0
-19 -53 0
-19 -70 0
-19 -87 0
-19 -104 0
-19 -121 0
-19 -138 0
-19 -155 0
-19 -172 0
-19 -189 0
-19 -206 0
-19 -223 0
-19 -240 0
-19 -257 0
-19 -274 0
-19 -291 0
-36 -53 0
-36 -70 0
-36 -87 0
-36 -104 0
-36 -121 0
-36 -138 0
-36 -155 0
-36 -172 0
-36 -189 0
-36 -206 0
-36 -223 0
-36 -240 0
-36 -257 0
-36 -274 0
-36 -291 0
-53 -70 0
-53 -87 0
-53 -104 0
-53 -121 0
-53 -138 0
-53 -155 0
-53 -172 0
-53 -189 0
-53 -206 0
-53 -223 0
-53 -240 0
-53 -257 0
-53 -274 0
-53 -291 0
-70 -87 0
-70 -104 0
-70 -121 0
-70 -138 0
-70 -155 0
-70 -172 0
-70 -189 0
-70 -206 0
-70 -223 0
-70 -240 0
-70 -257 0
-70 -274 0
-70 -291 0
-87 -104 0
-87 -121 0
-87 -138 0
-87 -155 0
-87 -172 0
-87 -189 0
-87 -206 0
-87 -223 0
-87 -240 0
-87 -257 0
-87 -274 0
-87 -291 0
-104 -121 0
-104 -138 0
-104 -155 0
-104 -172 0
-104 -189 0
-104 -206 0
-104 -223 0
-104 -240 0
-104 -257 0
-104 -274 0
-104 -291 0
-121 -138 0
-121 -155 0
-121 -172 0
-121 -189 0
-121 -206 0
-121 -223 0
-121 -240 0
-121 -257 0
-121 -274 0
-121 -291 0
-138 -155 0
-138 -172 0
-138 -189 0
-138 -206 0
-138 -223 0
-138 -240 0
-138 -257 0
-138 -274 0
-138 -291 0
-155 -172 0
-155 -189 0
-155 -206 0
-155 -223 0
-155 -240 0
-155 -257 0
-155 -274 0
-155 -291 0
-172 -189 0
-172 -206 0
-172 -223 0
-172 -240 0
-172 -257 0
-172 -274 0
-172 -291 0
-189 -206 0
-189 -223 0
-189 -240 0
-189 -257 0
-189 -274 0
-189 -291 0
-206 -223 0
-206 -240 0
-206 -257 0
-206 -274 0
-206 -291 0
-223 -240 0
-223 -257 0
-223 -274 0
-223 -291 0
-240 -257 0
-240 -274 0
-240 -291 0
-257 -274 0
-257 -291 0
-274 -291 0
-3 -20 0
-3 -37 0
-3 -54 0
-3 -71 0
-3 -88 0
-3 -105 0
-3 -122 0
-3 -139 0
-3 -156 0
-3 -173 0
-3 -190 0
-3 -207 0
-3 -224 0
-3 -241 0
-3 -258 0
-3 -275 0
-3 -292 0
-20 -37 0
-20 -54 0
-20 -71 0
-20 -88 0
-20 -105 0
-20 -122 0
-20 -139 0
-20 -156 0
-20 -173 0
-20 -190 0
-20 -207 0
-20 -224 0
-20 -241 0
-20 -258 0
-20 -275 0
-20 -292 0
-37 -54 0
-37 -71 0
-37 -88 0
-37 -105 0
-37 -122 0
-37 -139 0
-37 -156 0
-37 -173 0
-37 -190 0
-37 -207 0
-37 -224 0
-37 -241 0
-37 -258 0
-37 -275 0
-37 -292 0
-54 -71 0
-54 -88 0
-54 -105 0
-54 -122 0
-54 -139 0
-54 -156 0
-54 -173 0
-54 -190 0
-54 -207 0
-54 -224 0
-54 -241 0
-54 -258 0
-54 -275 0
-54 -292 0
-71 -88 0
-71 -105 0
-71 -122 0
-71 -139 0
-71 -156 0
-71 -173 0
-71 -190 0
-71 -207 0
-71 -224 0
-71 -241 0
-71 -258 0
-71 -275 0
-71 -292 0
-88 -105 0
-88 -122 0
-88 -139 0
-88 -156 0
-88 -173 0
-88 -190 0
-88 -207 0
-88 -224 0
-88 -241 0
-88 -258 0
-88 -275 0
-88 -292 0
-105 -122 0
-105 -139 0
-105 -156 0
-105 -173 0
-105 -190 0
-105 -207 0
-105 -224 0
-105 -241 0
-105 -258 0
-105 -275 0
-105 -292 0
-122 -139 0
-122 -156 0
-122 -173 0
-122 -190 0
-122 -207 0
-122 -224 0
-122 -241 0
-122 -258 0
-122 -275 0
-122 -292 0
-139 -156 0
-139 -173 0
-139 -190 0
-139 -207 0
-139 -224 0
-139 -241 0
-139 -258 0
-139 -275 0
-139 -292 0
-156 -173 0
-156 -190 0
-156 -207 0
-156 -224 0
-156 -241 0
-156 -258 0
-156 -275 0
-156 -292 0
-173 -190 0
-173 -207 0
-173 -224 0
-173 -241 0
-173 -258 0
-173 -275 0
-173 -292 0
-190 -207 0
-190 -224 0
-190 -241 0
-190 -258 0
-190 -275 0
-190 -292 0
-207 -224 0
-207 -241 0
-207 -258 0
-207 -275 0
-207 -292 0
-224 -241 0
-224 -258 0
-224 -275 0
-224 -292 0
-241 -258 0
-241 -275 0
-241 -292 0
-258 -275 0
-258 -292 0
-275 -292 0
-4 -21 0
-4 -38 0
-4 -55 0
-4 -72 0
-4 -89 0
-4 -106 0
-4 -123 0
-4 -140 0
-4 -157 0
-4 -174 0
-4 -191 0
-4 -208 0
-4 -225 0
-4 -242 0
-4 -259 0
-4 -276 0
-4 -293 0
-21 -38 0
-21 -55 0
-21 -72 0
-21 -89 0
-21 -106 0
-21 -123 0
-21 -140 0
-21 -157 0
-21 -174 0
-21 -191 0
-21 -208 0
-21 -225 0
-21 -242 0
-21 -259 0
-21 -276 0
-21 -293 0
-38 -55 0
-38 -72 0
-38 -89 0
-38 -106 0
-38 -123 0
-38 -140 0
-38 -157 0
-38 -174 0
-38 -191 0
-38 -208 0
-38 -225 0
-38 -242 0
-38 -259 0
-38 -276 0
-38 -293 0
-55 -72 0
-55 -89 0
-55 -106 0
-55 -123 0
-55 -140 0
-55 -157 0
-55 -174 0
-55 -191 0
-55 -208 0
-55 -225 0
-55 -242 0
-55 -259 0
-55 -276 0
-55 -293 0
-72 -89 0
-72 -106 0
-72 -123 0
-72 -140 0
-72 -157 0
-72 -174 0
-72 -191 0
-72 -208 0
-72 -225 0
-72 -242 0
-72 -259 0
-72 -276 0
-72 -293 0
-89 -106 0
-89 -123 0
-89 -140 0
-89 -157 0
-89 -174 0
-89 -191 0
-89 -208 0
-89 -225 0
-89 -242 0
-89 -259 0
-89 -276 0
-89 -293 0
-106 -123 0
-106 -140 0
-106 -157 0
-106 -174 0
-106 -191 0
-106 -208 0
-106 -225 0
-106 -242 0
-106 -259 0
-106 -276 0
-106 -293 0
-123 -140 0
-123 -157 0
-123 -174 0
-123 -191 0
-123 -208 0
-123 -225 0
-123 -242 0
-123 -259 0
-123 -276 0
-123 -293 0
-140 -157 0
-140 -174 0
-140 -191 0
-140 -208 0
-140 -225 0
-140 -242 0
-140 -259 0
-140 -276 0
-140 -293 0
-157 -174 0
-157 -191 0
-157 -208 0
-157 -225 0
-157 -242 0
-157 -259 0
-157 -276 0
-157 -293 0
-174 -191 0
-174 -208 0
-174 -225 0
-174 -242 0
-174 -259 0
-174 -276 0
-174 -293 0
-191 -208 0
-191 -225 0
-191 -242 0
-191 -259 0
-191 -276 0
-191 -293 0
-208 -225 0
-208 -242 0
-208 -259 0
-208 -276 0
-208 -293 0
-225 -242 0
-225 -259 0
-225 -276 0
-225 -293 0
-242 -259 0
-242 -276 0
-242 -293 0
-259 -276 0
-259 -293 0
-276 -293 0
-5 -22 0
-5 -39 0
-5 -56 0
-5 -73 0
-5 -90 0
-5 -107 0
-5 -124 0
-5 -141 0
-5 -158 0
-5 -175 0
-5 -192 0
-5 -209 0
-5 -226 0
-5 -243 0
-5 -260 0
-5 -277 0
-5 -294 0
-22 -39 0
-22 -56 0
-22 -73 0
-22 -90 0
-22 -107 0
-22 -124 0
-22 -141 0
-22 -158 0
-22 -175 0
-22 -192 0
-22 -209 0
-22 -226 0
-22 -243 0
-22 -260 0
-22 -277 0
-22 -294 0
-39 -56 0
-39 -73 0
-39 -90 0
-39 -107 0
-39 -124 0
-39 -141 0
-39 -158 0
-39 -175 0
-39 -192 0
-39 -209 0
-39 -226 0
-39 -243 0
-39 -260 0
-39 -277 0
-39 -294 0
-56 -73 0
-56 -90 0
-56 -107 0
-56 -124 0
-56 -141 0
-56 -158 0
-56 -175 0
-56 -192 0
-56 -209 0
-56 -226 0
-56 -243 0
-56 -260 0
-56 -277 0
-56 -294 0
-73 -90 0
-73 -107 0
-73 -124 0
-73 -141 0
-73 -158 0
-73 -175 0
-73 -192 0
-73 -209 0
-73 -226 0
-73 -243 0
-73 -260 0
-73 -277 0
-73 -294 0
-90 -107 0
-90 -124 0
-90 -141 0
-90 -158 0
-90 -175 0
-90 -192 0
-90 -209 0
-90 -226 0
-90 -243 0
-90 -260 0
-90 -277 0
-90 -294 0
-107 -124 0
-107 -141 0
-107 -158 0
-107 -175 0
-107 -192 0
-107 -209 0
-107 -226 0
-107 -243 0
-107 -260 0
-107 -277 0
-107 -294 0
-124 -141 0
-124 -158 0
-124 -175 0
-124 -192 0
-124 -209 0
-124 -226 0
-124 -243 0
-124 -260 0
-124 -277 0
-124 -294 0
-141 -158 0
-141 -175 0
-141 -192 0
-141 -209 0
-141 -226 0
-141 -243 0
-141 -260 0
-141 -277 0
-141 -294 0
-158 -175 0
-158 -192 0
-158 -209 0
-158 -226 0
-158 -243 0
-158 -260 0
-158 -277 0
-158 -294 0
-175 -192 0
-175 -209 0
-175 -226 0
-175 -243 0
-175 -260 0
-175 -277 0
-175 -294 0
-192 -209 0
-192 -226 0
-192 -243 0
-192 -260 0
-192 -277 0
-192 -294 0
-209 -226 0
-209 -243 0
-209 -260 0
-209 -277 0
-209 -294 0
-226 -243 0
-226 -260 0
-226 -277 0
-226 -294 0
-243 -260 0
-243 -277 0
-243 -294 0
-260 -277 0
-260 -294 0
-277 -294 0
-6 -23 0
-6 -40 0
-6 -57 0
-6 -74 0
-6 -91 0
-6 -108 0
-6 -125 0
-6 -142 0
-6 -159 0
-6 -176 0
-6 -193 0
-6 -210 0
-6 -227 0
-6 -244 0
-6 -261 0
-6 -278 0
-6 -295 0
-23 -40 0
-23 -57 0
-23 -74 0
-23 -91 0
-23 -108 0
-23 -125 0
-23 -142 0
-23 -159 0
-23 -176 0
-23 -193 0
-23 -210 0
-23 -227 0
-23 -244 0
-23 -261 0
-23 -278 0
-23 -295 0
-40 -57 0
-40 -74 0
-40 -91 0
-40 -108 0
-40 -125 0
-40 -142 0
-40 -159 0
-40 -176 0
-40 -193 0
-40 -210 0
-40 -227 0
-40 -244 0
-40 -261 0
-40 -278 0
-40 -295 0
-57 -74 0
-57 -91 0
-57 -108 0
-57 -125 0
-57 -142 0
-57 -159 0
-57 -176 0
-57 -193 0
-57 -210 0
-57 -227 0
-57 -244 0
-57 -261 0
-57 -278 0
-57 -295 0
-74 -91 0
-74 -108 0
-74 -125 0
-74 -142 0
-74 -159 0
-74 -176 0
-74 -193 0
-74 -210 0
-74 -227 0
-74 -244 0
-74 -261 0
-74 -278 0
-74 -295 0
-91 -108 0
-91 -125 0
-91 -142 0
-91 -159 0
-91 -176 0
-91 -193 0
-91 -210 0
-91 -227 0
-91 -244 0
-91 -261 0
-91 -278 0
-91 -295 0
-108 -125 0
-108 -142 0
-108 -159 0
-108 -176 0
-108 -193 0
-108 -210 0
-108 -227 0
-108 -244 0
-108 -261 0
-108 -278 0
-108 -295 0
-125 -142 0
-125 -159 0
-125 -176 0
-125 -193 0
-125 -210 0
-125 -227 0
-125 -244 0
-125 -261 0
-125 -278 0
-125 -295 0
-142 -159 0
-142 -176 0
-142 -193 0
-142 -210 0
-142 -227 0
-142 -244 0
-142 -261 0
-142 -278 0
-142 -295 0
-159 -176 0
-159 -193 0
-159 -210 0
-159 -227 0
-159 -244 0
-159 -261 0
-159 -278 0
-159 -295 0
-176 -193 0
-176 -210 0
-176 -227 0
-176 -244 0
-176 -261 0
-176 -278 0
-176 -295 0
-193 -210 0
-193 -227 0
-193 -244 0
-193 -261 0
-193 -278 0
-193 -295 0
-210 -227 0
-210 -244 0
-210 -261 0
-210 -278 0
-210 -295 0
-227 -244 0
-227 -261 0
-227 -278 0
-227 -295 0
-244 -261 0
-244 -278 0
-244 -295 0
-261 -278 0
-261 -295 0
-278 -295 0
-7 -24 0
-7 -41 0
-7 -58 0
-7 -75 0
-7 -92 0
-7 -109 0
-7 -126 0
-7 -143 0
-7 -160 0
-7 -177 0
-7 -194 0
-7 -211 0
-7 -228 0
-7 -245 0
-7 -262 0
-7 -279 0
-7 -296 0
-24 -41 0
-24 -58 0
-24 -75 0
-24 -92 0
-24 -109 0
-24 -126 0
-24 -143 0
-24 -160 0
-24 -177 0
-24 -194 0
-24 -211 0
-24 -228 0
-24 -245 0
-24 -262 0
-24 -279 0
-24 -296 0
-41 -58 0
-41 -75 0
-41 -92 0
-41 -109 0
-41 -126 0
-41 -143 0
-41 -160 0
-41 -177 0
-41 -194 0
-41 -211 0
-41 -228 0
-41 -245 0
-41 -262 0
-41 -279 0
-41 -296 0
-58 -75 0
-58 -92 0
-58 -109 0
-58 -126 0
-58 -143 0
-58 -160 0
-58 -177 0
-58 -194 0
-58 -211 0
-58 -228 0
-58 -245 0
-58 -262 0
-58 -279 0
-58 -296 0
-75 -92 0
-75 -109 0
-75 -126 0
-75 -143 0
-75 -160 0
-75 -177 0
-75 -194 0
-75 -211 0
-75 -228 0
-75 -245 0
-75 -262 0
-75 -279 0
-75 -296 0
-92 -109 0
-92 -126 0
-92 -143 0
-92 -160 0
-92 -177 0
-92 -194 0
-92 -211 0
-92 -228 0
-92 -245 0
-92 -262 0
-92 -279 0
-92 -296 0
-109 -126 0
-109 -143 0
-109 -160 0
-109 -177 0
-109 -194 0
-109 -211 0
-109 -228 0
-109 -245 0
-109 -262 0
-109 -279 0
-109 -296 0
-126 -143 0
-126 -160 0
-126 -177 0
-126 -194 0
-126 -211 0
-126 -228 0
-126 -245 0
-126 -262 0
-126 -279 0
-126 -296 0
-143 -160 0
-143 -177 0
-143 -194 0
-143 -211 0
-143 -228 0
-143 -245 0
-143 -262 0
-143 -279 0
-143 -296 0
-160 -177 0
-160 -194 0
-160 -211 0
-160 -228 0
-160 -245 0
-160 -262 0
-160 -279 0
-160 -296 0
-177 -194 0
-177 -211 0
-177 -228 0
-177 -245 0
-177 -262 0
-177 -279 0
-177 -296 0
-194 -211 0
-194 -228 0
-194 -245 0
-194 -262 0
-194 -279 0
-194 -296 0
-211 -228 0
-211 -245 0
-211 -262 0
-211 -279 0
-211 -296 0
-228 -245 0
-228 -262 0
-228 -279 0
-228 -296 0
-245 -262 0
-245 -279 0
-245 -296 0
-262 -279 0
-262 -296 0
-279 -296 0
-8 -25 0
-8 -42 0
-8 -59 0
-8 -76 0
-8 -93 0
-8 -110 0
-8 -127 0
-8 -144 0
-8 -161 0
-8 -178 0
-8 -195 0
-8 -212 0
-8 -229 0
-8 -246 0
-8 -263 0
-8 -280 0
-8 -297 0
-25 -42 0
-25 -59 0
-25 -76 0
-25 -93 0
-25 -110 0
-25 -127 0
-25 -144 0
-25 -161 0
-25 -178 0
-25 -195 0
-25 -212 0
-25 -229 0
-25 -246 0
-25 -263 0
-25 -280 0
-25 -297 0
-42 -59 0
-42 -76 0
-42 -93 0
-42 -110 0
-42 -127 0
-42 -144 0
-42 -161 0
-42 -178 0
-42 -195 0
-42 -212 0
-42 -229 0
-42 -246 0
-42 -263 0
-42 -280 0
-42 -297 0
-59 -76 0
-59 -93 0
-59 -110 0
-59 -127 0
-59 -144 0
-59 -161 0
-59 -178 0
-59 -195 0
-59 -212 0
-59 -229 0
-59 -246 0
-59 -263 0
-59 -280 0
-59 -297 0
-76 -93 0
-76 -110 0
-76 -127 0
-76 -144 0
-76 -161 0
-76 -178 0
-76 -195 0
-76 -212 0
-76 -229 0
-76 -246 0
-76 -263 0
-76 -280 0
-76 -297 0
-93 -110 0
-93 -127 0
-93 -144 0
-93 -161 0
-93 -178 0
-93 -195 0
-93 -212 0
-93 -229 0
-93 -246 0
-93 -263 0
-93 -280 0
-93 -297 0
-110 -127 0
-110 -144 0
-110 -161 0
-110 -178 0
-110 -195 0
-110 -212 0
-110 -229 0
-110 -246 0
-110 -263 0
-110 -280 0
-110 -297 0
-127 -144 0
-127 -161 0
-127 -178 0
-127 -195 0
-127 -212 0
-127 -229 0
-127 -246 0
-127 -263 0
-127 -280 0
-127 -297 0
-144 -161 0
-144 -178 0
-144 -195 0
-144 -212 0
-144 -229 0
-144 -246 0
-144 -263 0
-144 -280 0
-144 -297 0
-161 -178 0
-161 -195 0
-161 -212 0
-161 -229 0
-161 -246 0
-161 -263 0
-161 -280 0
-161 -297 0
-178 -195 0
-178 -212 0
-178 -229 0
-178 -246 0
-178 -263 0
-178 -280 0
-178 -297 0
-195 -212 0
-195 -229 0
-195 -246 0
-195 -263 0
-195 -280 0
-195 -297 0
-212 -229 0
-212 -246 0
-212 -263 0
-212 -280 0
-212 -297 0
-229 -246 0
-229 -263 0
-229 -280 0
-229 -297 0
-246 -263 0
-246 -280 0
-246 -297 0
-263 -280 0
-263 -297 0
-280 -297 0
-9 -26 0
-9 -43 0
-9 -60 0
-9 -77 0
-9 -94 0
-9 -111 0
-9 -128 0
-9 -145 0
-9 -162 0
-9 -179 0
-9 -196 0
-9 -213 0
-9 -230 0
-9 -247 0
-9 -264 0
-9 -281 0
-9 -298 0
-26 -43 0
-26 -60 0
-26 -77 0
-26 -94 0
-26 -111 0
-26 -128 0
-26 -145 0
-26 -162 0
-26 -179 0
-26 -196 0
-26 -213 0
-26 -230 0
-26 -247 0
-26 -264 0
-26 -281 0
-26 -298 0
-43 -60 0
-43 -77 0
-43 -94 0
-43 -111 0
-43 -128 0
-43 -145 0
-43 -162 0
-43 -179 0
-43 -196 0
-43 -213 0
-43 -230 0
-43 -247 0
-43 -264 0
-43 -281 0
-43 -298 0
-60 -77 0
-60 -94 0
-60 -111 0
-60 -128 0
-60 -145 0
-60 -162 0
-60 -179 0
-60 -196 0
-60 -213 0
-60 -230 0
-60 -247 0
-60 -264 0
-60 -281 0
-60 -298 0
-77 -94 0
-77 -111 0
-77 -128 0
-77 -145 0
-77 -162 0
-77 -179 0
-77 -196 0
-77 -213 0
-77 -230 0
-77 -247 0
-77 -264 0
-77 -281 0
-77 -298 0
-94 -111 0
-94 -128 0
-94 -145 0
-94 -162 0
-94 -179 0
-94 -196 0
-94 -213 0
-94 -230 0
-94 -247 0
-94 -264 0
-94 -281 0
-94 -298 0
-111 -128 0
-111 -145 0
-111 -162 0
-111 -179 0
-111 -196 0
-111 -213 0
-111 -230 0
-111 -247 0
-111 -264 0
-111 -281 0
-111 -298 0
-128 -145 0
-128 -162 0
-128 -179 0
-128 -196 0
-128 -213 0
-128 -230 0
-128 -247 0
-128 -264 0
-128 -281 0
-128 -298 0
-145 -162 0
-145 -179 0
-145 -196 0
-145 -213 0
-145 -230 0
-145 -247 0
-145 -264 0
-145 -281 0
-145 -298 0
-162 -179 0
-162 -196 0
-162 -213 0
-162 -230 0
-162 -247 0
-162 -264 0
-162 -281 0
-162 -298 0
-179 -196 0
-179 -213 0
-179 -230 0
-179 -247 0
-179 -264 0
-179 -281 0
-179 -298 0
-196 -213 0
-196 -230 0
-196 -247 0
-196 -264 0
-196 -281 0
-196 -298 0
-213 -230 0
-213 -247 0
-213 -264 0
-213 -281 0
-213 -298 0
-230 -247 0
-230 -264 0
-230 -281 0
-230 -298 0
-247 -264 0
-247 -281 0
-247 -298 0
-264 -281 0
-264 -298 0
-281 -298 0
-10 -27 0
-10 -44 0
-10 -61 0
-10 -78 0
-10 -95 0
-10 -112 0
-10 -129 0
-10 -146 0
-10 -163 0
-10 -180 0
-10 -197 0
-10 -214 0
-10 -231 0
-10 -248 0
-10 -265 0
-10 -282 0
-10 -299 0
-27 -44 0
-27 -61 0
-27 -78 0
-27 -95 0
-27 -112 0
-27 -129 0
-27 -146 0
-27 -163 0
-27 -180 0
-27 -197 0
-27 -214 0
-27 -231 0
-27 -248 0
-27 -265 0
-27 -282 0
-27 -299 0
-44 -61 0
-44 -78 0
-44 -95 0
-44 -112 0
-44 -129 0
-44 -146 0
-44 -163 0
-44 -180 0
-44 -197 0
-44 -214 0
-44 -231 0
-44 -248 0
-44 -265 0
-44 -282 0
-44 -299 0
-61 -78 0
-61 -95 0
-61 -112 0
-61 -129 0
-61 -146 0
-61 -163 0
-61 -180 0
-61 -197 0
-61 -214 0
-61 -231 0
-61 -248 0
-61 -265 0
-61 -282 0
-61 -299 0
-78 -95 0
-78 -112 0
-78 -129 0
-78 -146 0
-78 -163 0
-78 -180 0
-78 -197 0
-78 -214 0
-78 -231 0
-78 -248 0
-78 -265 0
-78 -282 0
-78 -299 0
-95 -112 0
-95 -129 0
-95 -146 0
-95 -163 0
-95 -180 0
-95 -197 0
-95 -214 0
-95 -231 0
-95 -248 0
-95 -265 0
-95 -282 0
-95 -299 0
-112 -129 0
-112 -146 0
-112 -163 0
-112 -180 0
-112 -197 0
-112 -214 0
-112 -231 0
-112 -248 0
-112 -265 0
-112 -282 0
-112 -299 0
-129 -146 0
-129 -163 0
-129 -180 0
-129 -197 0
-129 -214 0
-129 -231 0
-129 -248 0
-129 -265 0
-129 -282 0
-129 -299 0
-146 -163 0
-146 -180 0
-146 -197 0
-146 -214 0
-146 -231 0
-146 -248 0
-146 -265 0
-146 -282 0
-146 -299 0
-163 -180 0
-163 -197 0
-163 -214 0
-163 -231 0
-163 -248 0
-163 -265 0
-163 -282 0
-163 -299 0
-180 -197 0
-180 -214 0
-180 -231 0
-180 -248 0
-180 -265 0
-180 -282 0
-180 -299 0
-197 -214 0
-197 -231 0
-197 -248 0
-197 -265 0
-197 -282 0
-197 -299 0
-214 -231 0
-214 -248 0
-214 -265 0
-214 -282 0
-214 -299 0
-231 -248 0
-231 -265 0
-231 -282 0
-231 -299 0
-248 -265 0
-248 -282 0
-248 -299 0
-265 -282 0
-265 -299 0
-282 -299 0
-11 -28 0
-11 -45 0
-11 -62 0
-11 -79 0
-11 -96 0
-11 -113 0
-11 -130 0
-11 -147 0
-11 -164 0
-11 -181 0
-11 -198 0
-11 -215 0
-11 -232 0
-11 -249 0
-11 -266 0
-11 -283 0
-11 -300 0
-28 -45 0
-28 -62 0
-28 -79 0
-28 -96 0
-28 -113 0
-28 -130 0
-28 -147 0
-28 -164 0
-28 -181 0
-28 -198 0
-28 -215 0
-28 -232 0
-28 -249 0
-28 -266 0
-28 -283 0
-28 -300 0
-45 -62 0
-45 -79 0
-45 -96 0
-45 -113 0
-45 -130 0
-45 -147 0
-45 -164 0
-45 -181 0
-45 -198 0
-45 -215 0
-45 -232 0
-45 -249 0
-45 -266 0
-45 -283 0
-45 -300 0
-62 -79 0
-62 -96 0
-62 -113 0
-62 -130 0
-62 -147 0
-62 -164 0
-62 -181 0
-62 -198 0
-62 -215 0
-62 -232 0
-62 -249 0
-62 -266 0
-62 -283 0
-62 -300 0
-79 -96 0
-79 -113 0
-79 -130 0
-79 -147 0
-79 -164 0
-79 -181 0
-79 -198 0
-79 -215 0
-79 -232 0
-79 -249 0
-79 -266 0
-79 -283 0
-79 -300 0
-96 -113 0
-96 -130 0
-96 -147 0
-96 -164 0
-96 -181 0
-96 -198 0
-96 -215 0
-96 -232 0
-96 -249 0
-96 -266 0
-96 -283 0
-96 -300 0
-113 -130 0
-113 -147 0
-113 -164 0
-113 -181 0
-113 -198 0
-113 -215 0
-113 -232 0
-113 -249 0
-113 -266 0
-113 -283 0
-113 -300 0
-130 -147 0
-130 -164 0
-130 -181 0
-130 -198 0
-130 -215 0
-130 -232 0
-130 -249 0
-130 -266 0
-130 -283 0
-130 -300 0
-147 -164 0
-147 -181 0
-147 -198 0
-147 -215 0
-147 -232 0
-147 -249 0
-147 -266 0
-147 -283 0
-147 -300 0
-164 -181 0
-164 -198 0
-164 -215 0
-164 -232 0
-164 -249 0
-164 -266 0
-164 -283 0
-164 -300 0
-181 -198 0
-181 -215 0
-181 -232 0
-181 -249 0
-181 -266 0
-181 -283 0
-181 -300 0
-198 -215 0
-198 -232 0
-198 -249 0
-198 -266 0
-198 -283 0
-198 -300 0
-215 -232 0
-215 -249 0
-215 -266 0
-215 -283 0
-215 -300 0
-232 -249 0
-232 -266 0
-232 -283 0
-232 -300 0
-249 -266 0
-249 -283 0
-249 -300 0
-266 -283 0
-266 -300 0
-283 -300 0
-12 -29 0
-12 -46 0
-12 -63 0
-12 -80 0
-12 -97 0
-12 -114 0
-12 -131 0
-12 -148 0
-12 -165 0
-12 -182 0
-12 -199 0
-12 -216 0
-12 -233 0
-12 -250 0
-12 -267 0
-12 -284 0
-12 -301 0
-29 -46 0
-29 -63 0
-29 -80 0
-29 -97 0
-29 -114 0
-29 -131 0
-29 -148 0
-29 -165 0
-29 -182 0
-29 -199 0
-29 -216 0
-29 -233 0
-29 -250 0
-29 -267 0
-29 -284 0
-29 -301 0
-46 -63 0
-46 -80 0
-46 -97 0
-46 -114 0
-46 -131 0
-46 -148 0
-46 -165 0
-46 -182 0
-46 -199 0
-46 -216 0
-46 -233 0
-46 -250 0
-46 -267 0
-46 -284 0
-46 -301 0
-63 -80 0
-63 -97 0
-63 -114 0
-63 -131 0
-63 -148 0
-63 -165 0
-63 -182 0
-63 -199 0
-63 -216 0
-63 -233 0
-63 -250 0
-63 -267 0
-63 -284 0
-63 -301 0
-80 -97 0
-80 -114 0
-80 -131 0
-80 -148 0
-80 -165 0
-80 -182 0
-80 -199 0
-80 -216 0
-80 -233 0
-80 -250 0
-80 -267 0
-80 -284 0
-80 -301 0
-97 -114 0
-97 -131 0
-97 -148 0
-97 -165 0
-97 -182 0
-97 -199 0
-97 -216 0
-97 -233 0
-97 -250 0
-97 -267 0
-97 -284 0
-97 -301 0
-114 -131 0
-114 -148 0
-114 -165 0
-114 -182 0
-114 -199 0
-114 -216 0
-114 -233 0
-114 -250 0
-114 -267 0
-114 -284 0
-114 -301 0
-131 -148 0
-131 -165 0
-131 -182 0
-131 -199 0
-131 -216 0
-131 -233 0
-131 -250 0
-131 -267 0
-131 -284 0
-131 -301 0
-148 -165 0
-148 -182 0
-148 -199 0
-148 -216 0
-148 -233 0
-148 -250 0
-148 -267 0
-148 -284 0
-148 -301 0
-165 -182 0
-165 -199 0
-165 -216 0
-165 -233 0
-165 -250 0
-165 -267 0
-165 -284 0
-165 -301 0
-182 -199 0
-182 -216 0
-182 -233 0
-182 -250 0
-182 -267 0
-182 -284 0
-182 -301 0
-199 -216 0
-199 -233 0
-199 -250 0
-199 -267 0
-199 -284 0
-199 -301 0
-216 -233 0
-216 -250 0
-216 -267 0
-216 -284 0
-216 -301 0
-233 -250 0
-233 -267 0
-233 -284 0
-233 -301 0
-250 -267 0
-250 -284 0
-250 -301 0
-267 -284 0
-267 -301 0
-284 -301 0
-13 -30 0
-13 -47 0
-13 -64 0
-13 -81 0
-13 -98 0
-13 -115 0
-13 -132 0
-13 -149 0
-13 -166 0
-13 -183 0
-13 -200 0
-13 -217 0
-13 -234 0
-13 -251 0
-13 -268 0
-13 -285 0
-13 -302 0
-30 -47 0
-30 -64 0
-30 -81 0
-30 -98 0
-30 -115 0
-30 -132 0
-30 -149 0
-30 -166 0
-30 -183 0
-30 -200 0
-30 -217 0
-30 -234 0
-30 -251 0
-30 -268 0
-30 -285 0
-30 -302 0
-47 -64 0
-47 -81 0
-47 -98 0
-47 -115 0
-47 -132 0
-47 -149 0
-47 -166 0
-47 -183 0
-47 -200 0
-47 -217 0
-47 -234 0
-47 -251 0
-47 -268 0
-47 -285 0
-47 -302 0
-64 -81 0
-64 -98 0
-64 -115 0
-64 -132 0
-64 -149 0
-64 -166 0
-64 -183 0
-64 -200 0
-64 -217 0
-64 -234 0
-64 -251 0
-64 -268 0
-64 -285 0
-64 -302 0
-81 -98 0
-81 -115 0
-81 -132 0
-81 -149 0
-81 -166 0
-81 -183 0
-81 -200 0
-81 -217 0
-81 -234 0
-81 -251 0
-81 -268 0
-81 -285 0
-81 -302 0
-98 -115 0
-98 -132 0
-98 -149 0
-98 -166 0
-98 -183 0
-98 -200 0
-98 -217 0
-98 -234 0
-98 -251 0
-98 -268 0
-98 -285 0
-98 -302 0
-115 -132 0
-115 -149 0
-115 -166 0
-115 -183 0
-115 -200 0
-115 -217 0
-115 -234 0
-115 -251 0
-115 -268 0
-115 -285 0
-115 -302 0
-132 -149 0
-132 -166 0
-132 -183 0
-132 -200 0
-132 -217 0
-132 -234 0
-132 -251 0
-132 -268 0
-132 -285 0
-132 -302 0
-149 -166 0
-149 -183 0
-149 -200 0
-149 -217 0
-149 -234 0
-149 -251 0
-149 -268 0
-149 -285 0
-149 -302 0
-166 -183 0
-166 -200 0
-166 -217 0
-166 -234 0
-166 -251 0
-166 -268 0
-166 -285 0
-166 -302 0
-183 -200 0
-183 -217 0
-183 -234 0
-183 -251 0
-183 -268 0
-183 -285 0
-183 -302 0
-200 -217 0
-200 -234 0
-200 -251 0
-200 -268 0
-200 -285 0
-200 -302 0
-217 -234 0
-217 -251 0
-217 -268 0
-217 -285 0
-217 -302 0
-234 -251 0
-234 -268 0
-234 -285 0
-234 -302 0
-251 -268 0
-251 -285 0
-251 -302 0
-268 -285 0
-268 -302 0
-285 -302 0
-14 -31 0
-14 -48 0
-14 -65 0
-14 -82 0
-14 -99 0
-14 -116 0
-14 -133 0
-14 -150 0
-14 -167 0
-14 -184 0
-14 -201 0
-14 -218 0
-14 -235 0
-14 -252 0
-14 -269 0
-14 -286 0
-14 -303 0
-31 -48 0
-31 -65 0
-31 -82 0
-31 -99 0
-31 -116 0
-31 -133 0
-31 -150 0
-31 -167 0
-31 -184 0
-31 -201 0
-31 -218 0
-31 -235 0
-31 -252 0
-31 -269 0
-31 -286 0
-31 -303 0
-48 -65 0
-48 -82 0
-48 -99 0
-48 -116 0
-48 -133 0
-48 -150 0
-48 -167 0
-48 -184 0
-48 -201 0
-48 -218 0
-48 -235 0
-48 -252 0
-48 -269 0
-48 -286 0
-48 -303 0
-65 -82 0
-65 -99 0
-65 -116 0
-65 -133 0
-65 -150 0
-65 -167 0
-65 -184 0
-65 -201 0
-65 -218 0
-65 -235 0
-65 -252 0
-65 -269 0
-65 -286 0
-65 -303 0
-82 -99 0
-82 -116 0
-82 -133 0
-82 -150 0
-82 -167 0
-82 -184 0
-82 -201 0
-82 -218 0
-82 -235 0
-82 -252 0
-82 -269 0
-82 -286 0
-82 -303 0
-99 -116 0
-99 -133 0
-99 -150 0
-99 -167 0
-99 -184 0
-99 -201 0
-99 -218 0
-99 -235 0
-99 -252 0
-99 -269 0
-99 -286 0
-99 -303 0
-116 -133 0
-116 -150 0
-116 -167 0
-116 -184 0
-116 -201 0
-116 -218 0
-116 -235 0
-116 -252 0
-116 -269 0
-116 -286 0
-116 -303 0
-133 -150 0
-133 -167 0
-133 -184 0
-133 -201 0
-133 -218 0
-133 -235 0
-133 -252 0
-133 -269 0
-133 -286 0
-133 -303 0
-150 -167 0
-150 -184 0
-150 -201 0
-150 -218 0
-150 -235 0
-150 -252 0
-150 -269 0
-150 -286 0
-150 -303 0
-167 -184 0
-167 -201 0
-167 -218 0
-167 -235 0
-167 -252 0
-167 -269 0
-167 -286 0
-167 -303 0
-184 -201 0
-184 -218 0
-184 -235 0
-184 -252 0
-184 -269 0
-184 -286 0
-184 -303 0
-201 -218 0
-201 -235 0
-201 -252 0
-201 -269 0
-201 -286 0
-201 -303 0
-218 -235 0
-218 -252 0
-218 -269 0
-218 -286 0
-218 -303 0
-235 -252 0
-235 -269 0
-235 -286 0
-235 -303 0
-252 -269 0
-252 -286 0
-252 -303 0
-269 -286 0
-269 -303 0
-286 -303 0
-15 -32 0
-15 -49 0
-15 -66 0
-15 -83 0
-15 -100 0
-15 -117 0
-15 -134 0
-15 -151 0
-15 -168 0
-15 -185 0
-15 -202 0
-15 -219 0
-15 -236 0
-15 -253 0
-15 -270 0
-15 -287 0
-15 -304 0
-32 -49 0
-32 -66 0
-32 -83 0
-32 -100 0
-32 -117 0
-32 -134 0
-32 -151 0
-32 -168 0
-32 -185 0
-32 -202 0
-32 -219 0
-32 -236 0
-32 -253 0
-32 -270 0
-32 -287 0
-32 -304 0
-49 -66 0
-49 -83 0
-49 -100 0
-49 -117 0
-49 -134 0
-49 -151 0
-49 -168 0
-49 -185 0
-49 -202 0
-49 -219 0
-49 -236 0
-49 -253 0
-49 -270 0
-49 -287 0
-49 -304 0
-66 -83 0
-66 -100 0
-66 -117 0
-66 -134 0
-66 -151 0
-66 -168 0
-66 -185 0
-66 -202 0
-66 -219 0
-66 -236 0
-66 -253 0
-66 -270 0
-66 -287 0
-66 -304 0
-83 -100 0
-83 -117 0
-83 -134 0
-83 -151 0
-83 -168 0
-83 -185 0
-83 -202 0
-83 -219 0
-83 -236 0
-83 -253 0
-83 -270 0
-83 -287 0
-83 -304 0
-100 -117 0
-100 -134 0
-100 -151 0
-100 -168 0
-100 -185 0
-100 -202 0
-100 -219 0
-100 -236 0
-100 -253 0
-100 -270 0
-100 -287 0
-100 -304 0
-117 -134 0
-117 -151 0
-117 -168 0
-117 -185 0
-117 -202 0
-117 -219 0
-117 -236 0
-117 -253 0
-117 -270 0
-117 -287 0
-117 -304 0
-134 -151 0
-134 -168 0
-134 -185 0
-134 -202 0
-134 -219 0
-134 -236 0
-134 -253 0
-134 -270 0
-134 -287 0
-134 -304 0
-151 -168 0
-151 -185 0
-151 -202 0
-151 -219 0
-151 -236 0
-151 -253 0
-151 -270 0
-151 -287 0
-151 -304 0
-168 -185 0
-168 -202 0
-168 -219 0
-168 -236 0
-168 -253 0
-168 -270 0
-168 -287 0
-168 -304 0
-185 -202 0
-185 -219 0
-185 -236 0
-185 -253 0
-185 -270 0
-185 -287 0
-185 -304 0
-202 -219 0
-202 -236 0
-202 -253 0
-202 -270 0
-202 -287 0
-202 -304 0
-219 -236 0
-219 -253 0
-219 -270 0
-219 -287 0
-219 -304 0
-236 -253 0
-236 -270 0
-236 -287 0
-236 -304 0
-253 -270 0
-253 -287 0
-253 -304 0
-270 -287 0
-270 -304 0
-287 -304 0
-16 -33 0
-16 -50 0
-16 -67 0
-16 -84 0
-16 -101 0
-16 -118 0
-16 -135 0
-16 -152 0
-16 -169 0
-16 -186 0
-16 -203 0
-16 -220 0
-16 -237 0
-16 -254 0
-16 -271 0
-16 -288 0
-16 -305 0
-33 -50 0
-33 -67 0
-33 -84 0
-33 -101 0
-33 -118 0
-33 -135 0
-33 -152 0
-33 -169 0
-33 -186 0
-33 -203 0
-33 -220 0
-33 -237 0
-33 -254 0
-33 -271 0
-33 -288 0
-33 -305 0
-50 -67 0
-50 -84 0
-50 -101 0
-50 -118 0
-50 -135 0
-50 -152 0
-50 -169 0
-50 -186 0
-50 -203 0
-50 -220 0
-50 -237 0
-50 -254 0
-50 -271 0
-50 -288 0
-50 -305 0
-67 -84 0
-67 -101 0
-67 -118 0
-67 -135 0
-67 -152 0
-67 -169 0
-67 -186 0
-67 -203 0
-67 -220 0
-67 -237 0
-67 -254 0
-67 -271 0
-67 -288 0
-67 -305 0
-84 -101 0
-84 -118 0
-84 -135 0
-84 -152 0
-84 -169 0
-84 -186 0
-84 -203 0
-84 -220 0
-84 -237 0
-84 -254 0
-84 -271 0
-84 -288 0
-84 -305 0
-101 -118 0
-101 -135 0
-101 -152 0
-101 -169 0
-101 -186 0
-101 -203 0
-101 -220 0
-101 -237 0
-101 -254 0
-101 -271 0
-101 -288 0
-101 -305 0
-118 -135 0
-118 -152 0
-118 -169 0
-118 -186 0
-118 -203 0
-118 -220 0
-118 -237 0
-118 -254 0
-118 -271 0
-118 -288 0
-118 -305 0
-135 -152 0
-135 -169 0
-135 -186 0
-135 -203 0
-135 -220 0
-135 -237 0
-135 -254 0
-135 -271 0
-135 -288 0
-135 -305 0
-152 -169 0
-152 -186 0
-152 -203 0
-152 -220 0
-152 -237 0
-152 -254 0
-152 -271 0
-152 -288 0
-152 -305 0
-169 -186 0
-169 -203 0
-169 -220 0
-169 -237 0
-169 -254 0
-169 -271 0
-169 -288 0
-169 -305 0
-186 -203 0
-186 -220 0
-186 -237 0
-186 -254 0
-186 -271 0
-186 -288 0
-186 -305 0
-203 -220 0
-203 -237 0
-203 -254 0
-203 -271 0
-203 -288 0
-203 -305 0
-220 -237 0
-220 -254 0
-220 -271 0
-220 -288 0
-220 -305 0
-237 -254 0
-237 -271 0
-237 -288 0
-237 -305 0
-254 -271 0
-254 -288 0
-254 -305 0
-271 -288 0
-271 -305 0
-288 -305 0
-17 -34 0
-17 -51 0
-17 -68 0
-17 -85 0
-17 -102 0
-17 -119 0
-17 -136 0
-17 -153 0
-17 -170 0
-17 -187 0
-17 -204 0
-17 -221 0
-17 -238 0
-17 -255 0
-17 -272 0
-17 -289 0
-17 -306 0
-34 -51 0
-34 -68 0
-34 -85 0
-34 -102 0
-34 -119 0
-34 -136 0
-34 -153 0
-34 -170 0
-34 -187 0
-34 -204 0
-34 -221 0
-34 -238 0
-34 -255 0
-34 -272 0
-34 -289 0
-34 -306 0
-51 -68 0
-51 -85 0
-51 -102 0
-51 -119 0
-51 -136 0
-51 -153 0
-51 -170 0
-51 -187 0
-51 -204 0
-51 -221 0
-51 -238 0
-51 -255 0
-51 -272 0
-51 -289 0
-51 -306 0
-68 -85 0
-68 -102 0
-68 -119 0
-68 -136 0
-68 -153 0
-68 -170 0
-68 -187 0
-68 -204 0
-68 -221 0
-68 -238 0
-68 -255 0
-68 -272 0
-68 -289 0
-68 -306 0
-85 -102 0
-85 -119 0
-85 -136 0
-85 -153 0
-85 -170 0
-85 -187 0
-85 -204 0
-85 -221 0
-85 -238 0
-85 -255 0
-85 -272 0
-85 -289 0
-85 -306 0
-102 -119 0
-102 -136 0
-102 -153 0
-102 -170 0
-102 -187 0
-102 -204 0
-102 -221 0
-102 -238 0
-102 -255 0
-102 -272 0
-102 -289 0
-102 -306 0
-119 -136 0
-119 -153 0
-119 -170 0
-119 -187 0
-119 -204 0
-119 -221 0
-119 -238 0
-119 -255 0
-119 -272 0
-119 -289 0
-119 -306 0
-136 -153 0
-136 -170 0
-136 -187 0
-136 -204 0
-136 -221 0
-136 -238 0
-136 -255 0
-136 -272 0
-136 -289 0
-136 -306 0
-153 -170 0
-153 -187 0
-153 -204 0
-153 -221 0
-153 -238 0
-153 -255 0
-153 -272 0
-153 -289 0
-153 -306 0
-170 -187 0
-170 -204 0
-170 -221 0
-170 -238 0
-170 -255 0
-170 -272 0
-170 -289 0
-170 -306 0
-187 -204 0
-187 -221 0
-187 -238 0
-187 -255 0
-187 -272 0
-187 -289 0
-187 -306 0
-204 -221 0
-204 -238 0
-204 -255 0
-204 -272 0
-204 -289 0
-204 -306 0
-221 -238 0
-221 -255 0
-221 -272 0
-221 -289 0
-221 -306 0
-238 -255 0
-238 -272 0
-238 -289 0
-238 -306 0
-255 -272 0
-255 -289 0
-255 -306 0
-272 -289 0
-272 -306 0
-289 -306 0
